(declare-fun temp394_1 () (_ BitVec 64))
(declare-fun var461925 () (_ BitVec 64))
(declare-fun temp394_2 () (_ BitVec 64))
(declare-fun var724069 () (_ BitVec 64))
(declare-fun temp394_3 () (_ BitVec 64))
(declare-fun temp394_4 () (_ BitVec 64))
(declare-fun var69380 () (_ BitVec 64))
(declare-fun k!0 () Bool)
(declare-fun ARGNAME_rtol_NAMEEND () (_ BitVec 64))
(declare-fun temp394_5 () (_ BitVec 64))
(declare-fun ARGNAME_atol_NAMEEND () (_ BitVec 64))
(declare-fun var69401 () (_ BitVec 64))
(declare-fun temp394_6 () (_ BitVec 64))
(declare-fun temp394_7 () (_ BitVec 64))
(declare-fun temp394_8 () (_ BitVec 64))
(declare-fun ARGNAME_input_NAMEEND_DIMSIZE
             ()
             (Array (_ BitVec 64) (_ BitVec 64)))
(declare-fun temp394_9 () (_ BitVec 64))
(declare-fun temp394_10 () (_ BitVec 64))
(declare-fun temp394_11 () (_ BitVec 64))
(declare-fun temp394_12 () (_ BitVec 64))
(declare-fun temp394_13 () (_ BitVec 64))
(declare-fun temp394_14 () (_ BitVec 64))
(declare-fun temp394_15 () (_ BitVec 64))
(declare-fun temp394_16 () (_ BitVec 64))
(declare-fun temp394_17 () (_ BitVec 64))
(declare-fun temp394_18 () (_ BitVec 64))
(declare-fun temp394_19 () (_ BitVec 64))
(declare-fun temp394_20 () (_ BitVec 64))
(declare-fun temp394_21 () (_ BitVec 64))
(declare-fun temp394_22 () (_ BitVec 64))
(declare-fun temp394_23 () (_ BitVec 64))
(declare-fun temp394_24 () (_ BitVec 64))
(declare-fun temp394_25 () (_ BitVec 64))
(declare-fun temp394_26 () (_ BitVec 64))
(declare-fun ARGNAME_other_NAMEEND_DIMSIZE
             ()
             (Array (_ BitVec 64) (_ BitVec 64)))
(declare-fun temp394_27 () (_ BitVec 64))
(declare-fun temp394_28 () (_ BitVec 64))
(declare-fun temp394_29 () (_ BitVec 64))
(declare-fun temp394_30 () (_ BitVec 64))
(declare-fun temp394_31 () (_ BitVec 64))
(declare-fun temp394_32 () (_ BitVec 64))
(declare-fun temp394_33 () (_ BitVec 64))
(declare-fun temp394_34 () (_ BitVec 64))
(declare-fun temp394_35 () (_ BitVec 64))
(declare-fun temp394_36 () (_ BitVec 64))
(declare-fun temp394_37 () (_ BitVec 64))
(declare-fun temp394_38 () (_ BitVec 64))
(declare-fun temp394_39 () (_ BitVec 64))
(declare-fun temp394_40 () (_ BitVec 64))
(declare-fun temp394_41 () (_ BitVec 64))
(declare-fun temp394_42 () (_ BitVec 64))
(declare-fun temp394_43 () (_ BitVec 64))
(declare-fun temp394_44 () (_ BitVec 64))
(declare-fun temp394_45 () (_ BitVec 64))
(declare-fun temp394_46 () (_ BitVec 64))
(declare-fun temp394_47 () (_ BitVec 64))
(declare-fun temp394_48 () (_ BitVec 64))
(declare-fun temp394_49 () (_ BitVec 64))
(declare-fun temp394_50 () (_ BitVec 64))
(declare-fun temp394_51 () (_ BitVec 64))
(declare-fun temp394_52 () (_ BitVec 64))
(declare-fun temp394_53 () (_ BitVec 64))
(declare-fun temp394_54 () (_ BitVec 64))
(declare-fun temp394_55 () (_ BitVec 64))
(declare-fun temp394_56 () (_ BitVec 64))
(declare-fun temp394_57 () (_ BitVec 64))
(declare-fun temp394_58 () (_ BitVec 64))
(declare-fun temp394_59 () (_ BitVec 64))
(declare-fun temp394_60 () (_ BitVec 64))
(declare-fun temp394_61 () (_ BitVec 64))
(declare-fun temp394_62 () (_ BitVec 64))
(declare-fun temp394_63 () (_ BitVec 64))
(declare-fun temp394_64 () (_ BitVec 64))
(declare-fun temp394_65 () (_ BitVec 64))
(declare-fun temp394_66 () (_ BitVec 64))
(declare-fun temp394_67 () (_ BitVec 64))
(declare-fun temp394_68 () (_ BitVec 64))
(declare-fun temp394_69 () (_ BitVec 64))
(declare-fun temp394_70 () (_ BitVec 64))
(declare-fun temp394_71 () (_ BitVec 64))
(declare-fun temp394_72 () (_ BitVec 64))
(declare-fun temp394_73 () (_ BitVec 64))
(declare-fun temp394_74 () (_ BitVec 64))
(declare-fun temp394_75 () (_ BitVec 64))
(declare-fun temp394_76 () (_ BitVec 64))
(declare-fun temp394_77 () (_ BitVec 64))
(declare-fun temp394_78 () (_ BitVec 64))
(declare-fun ARGNAME_other_NAMEEND_DIM () (_ BitVec 64))
(declare-fun temp394_79 () (_ BitVec 64))
(declare-fun ARGNAME_equal_nan_NAMEEND () (_ BitVec 64))
(declare-fun temp394_80 () (_ BitVec 64))
(declare-fun var1248381 () (_ BitVec 64))
(declare-fun temp394_81 () (_ BitVec 64))
(declare-fun var69543 () (_ BitVec 64))
(declare-fun temp394_82 () (_ BitVec 64))
(declare-fun var69545 () (_ BitVec 64))
(declare-fun var69546 () (_ BitVec 64))
(declare-fun temp394_83 () (_ BitVec 64))
(declare-fun temp394_84 () (_ BitVec 64))
(declare-fun var1970478 () (_ BitVec 64))
(declare-fun temp394_85 () (_ BitVec 64))
(declare-fun var1970479 () (_ BitVec 64))
(declare-fun var2294910 () (_ BitVec 64))
(declare-fun var2294911 () (_ BitVec 64))
(declare-fun temp394_86 () (_ BitVec 64))
(declare-fun var2625838 () (_ BitVec 64))
(declare-fun temp394_87 () (_ BitVec 64))
(declare-fun var2625839 () (_ BitVec 64))
(declare-fun var2950270 () (_ BitVec 64))
(declare-fun var2950271 () (_ BitVec 64))
(declare-fun temp394_88 () (_ BitVec 64))
(declare-fun var3477914 () (_ BitVec 64))
(declare-fun temp394_89 () (_ BitVec 64))
(declare-fun var4002202 () (_ BitVec 64))
(declare-fun temp394_90 () (_ BitVec 64))
(declare-fun var5510051 () (_ BitVec 64))
(declare-fun temp394_92 () (_ BitVec 64))
(declare-fun temp394_91 () (_ BitVec 64))
(assert (= temp394_1 #x0000000000080000))
(assert (= var461925 temp394_1))
(assert (= temp394_2 #x0000000000080000))
(assert (= var724069 temp394_2))
(assert (= temp394_3 #x0000000000000000))
(assert (= var69380
   (ite (bvslt ARGNAME_rtol_NAMEEND temp394_3)
        #x0000000000000001
        #x0000000000000000)))
(assert (= temp394_4 #x0000000000000000))
(assert (= var69380 temp394_4))
(assert (= temp394_5 #x0000000000000000))
(assert (= var69401
   (ite (bvslt ARGNAME_atol_NAMEEND temp394_5)
        #x0000000000000001
        #x0000000000000000)))
(assert (= temp394_6 #x0000000000000000))
(assert (= var69401 temp394_6))
(assert (= temp394_7 #x0000000000000000))
(assert (= temp394_8 temp394_7))
(assert (= temp394_9 (select ARGNAME_input_NAMEEND_DIMSIZE temp394_8)))
(assert (= temp394_10 #x0000000000000001))
(assert (= temp394_11 temp394_10))
(assert (= temp394_12 (select ARGNAME_input_NAMEEND_DIMSIZE temp394_11)))
(assert (= temp394_13 #x0000000000000002))
(assert (= temp394_14 temp394_13))
(assert (= temp394_15 (select ARGNAME_input_NAMEEND_DIMSIZE temp394_14)))
(assert (= temp394_16 #x0000000000000003))
(assert (= temp394_17 temp394_16))
(assert (= temp394_18 (select ARGNAME_input_NAMEEND_DIMSIZE temp394_17)))
(assert (= temp394_19 #x0000000000000004))
(assert (= temp394_20 temp394_19))
(assert (= temp394_21 (select ARGNAME_input_NAMEEND_DIMSIZE temp394_20)))
(assert (= temp394_22 #x0000000000000005))
(assert (= temp394_23 temp394_22))
(assert (= temp394_24 (select ARGNAME_input_NAMEEND_DIMSIZE temp394_23)))
(assert (= temp394_25 #x0000000000000000))
(assert (= temp394_26 temp394_25))
(assert (= temp394_27 (select ARGNAME_other_NAMEEND_DIMSIZE temp394_26)))
(assert (= temp394_28 #x0000000000000001))
(assert (= temp394_29 temp394_28))
(assert (= temp394_30 (select ARGNAME_other_NAMEEND_DIMSIZE temp394_29)))
(assert (= temp394_31 #x0000000000000002))
(assert (= temp394_32 temp394_31))
(assert (= temp394_33 (select ARGNAME_other_NAMEEND_DIMSIZE temp394_32)))
(assert (= temp394_34 #x0000000000000003))
(assert (= temp394_35 temp394_34))
(assert (= temp394_36 (select ARGNAME_other_NAMEEND_DIMSIZE temp394_35)))
(assert (= temp394_37 #x0000000000000004))
(assert (= temp394_38 temp394_37))
(assert (= temp394_39 (select ARGNAME_other_NAMEEND_DIMSIZE temp394_38)))
(assert (= temp394_40 #x0000000000000005))
(assert (= temp394_41 temp394_40))
(assert (= temp394_42 (select ARGNAME_other_NAMEEND_DIMSIZE temp394_41)))
(assert (= temp394_43 temp394_11))
(assert (= temp394_44 (select ARGNAME_other_NAMEEND_DIMSIZE temp394_43)))
(assert (= temp394_45 temp394_14))
(assert (= temp394_46 (select ARGNAME_other_NAMEEND_DIMSIZE temp394_45)))
(assert (= temp394_47 temp394_17))
(assert (= temp394_48 (select ARGNAME_other_NAMEEND_DIMSIZE temp394_47)))
(assert (= temp394_49 temp394_20))
(assert (= temp394_50 (select ARGNAME_other_NAMEEND_DIMSIZE temp394_49)))
(assert (= temp394_51 temp394_23))
(assert (= temp394_52 (select ARGNAME_other_NAMEEND_DIMSIZE temp394_51)))
(assert (= temp394_53 temp394_8))
(assert (= temp394_54 (select ARGNAME_other_NAMEEND_DIMSIZE temp394_53)))
(assert (= temp394_55 temp394_26))
(assert (= temp394_56 (select ARGNAME_input_NAMEEND_DIMSIZE temp394_55)))
(assert (= temp394_57 temp394_29))
(assert (= temp394_58 (select ARGNAME_input_NAMEEND_DIMSIZE temp394_57)))
(assert (= temp394_59 temp394_32))
(assert (= temp394_60 (select ARGNAME_input_NAMEEND_DIMSIZE temp394_59)))
(assert (= temp394_61 temp394_35))
(assert (= temp394_62 (select ARGNAME_input_NAMEEND_DIMSIZE temp394_61)))
(assert (= temp394_63 temp394_38))
(assert (= temp394_64 (select ARGNAME_input_NAMEEND_DIMSIZE temp394_63)))
(assert (= temp394_65 temp394_41))
(assert (= temp394_66 (select ARGNAME_input_NAMEEND_DIMSIZE temp394_65)))
(assert (= temp394_67 temp394_43))
(assert (= temp394_68 (select ARGNAME_input_NAMEEND_DIMSIZE temp394_67)))
(assert (= temp394_69 temp394_45))
(assert (= temp394_70 (select ARGNAME_input_NAMEEND_DIMSIZE temp394_69)))
(assert (= temp394_71 temp394_47))
(assert (= temp394_72 (select ARGNAME_input_NAMEEND_DIMSIZE temp394_71)))
(assert (= temp394_73 temp394_49))
(assert (= temp394_74 (select ARGNAME_input_NAMEEND_DIMSIZE temp394_73)))
(assert (= temp394_75 temp394_51))
(assert (= temp394_76 (select ARGNAME_input_NAMEEND_DIMSIZE temp394_75)))
(assert (= temp394_77 temp394_53))
(assert (= temp394_78 (select ARGNAME_input_NAMEEND_DIMSIZE temp394_77)))
(assert (= (and true
        (= temp394_44 temp394_12)
        (= temp394_46 temp394_15)
        (= temp394_48 temp394_18)
        (= temp394_50 temp394_21)
        (= temp394_52 temp394_24)
        (= temp394_54 temp394_9)
        (= temp394_56 temp394_27)
        (= temp394_58 temp394_30)
        (= temp394_60 temp394_33)
        (= temp394_62 temp394_36)
        (= temp394_64 temp394_39)
        (= temp394_66 temp394_42)
        (= temp394_68 temp394_44)
        (= temp394_70 temp394_46)
        (= temp394_72 temp394_48)
        (= temp394_74 temp394_50)
        (= temp394_76 temp394_52)
        (= temp394_78 temp394_54))
   true))
(assert (= ARGNAME_other_NAMEEND_DIM ARGNAME_other_NAMEEND_DIM))
(assert (= temp394_79 #x0000000000000001))
(assert (= ARGNAME_equal_nan_NAMEEND temp394_79))
(assert (= temp394_80 #x0000000009c00400))
(assert (= var1248381 temp394_80))
(assert (= temp394_81 #x0000000000000000))
(assert (= var69543
   (ite (= ARGNAME_rtol_NAMEEND temp394_81)
        #x0000000000000001
        #x0000000000000000)))
(assert (= temp394_82 #x0000000000000000))
(assert (= var69545
   (ite (= ARGNAME_atol_NAMEEND temp394_82)
        #x0000000000000001
        #x0000000000000000)))
(assert (= var69546 (bvand var69543 var69545)))
(assert (= temp394_83 #x0000000000000000))
(assert (= var69546 temp394_83))
(assert (= temp394_84 #x0000000000000000))
(assert (= var1970478 temp394_84))
(assert (= temp394_85 #x0000000000000000))
(assert (= var1970479 temp394_85))
(assert (= var2294910 var1970478))
(assert (= var2294911 var1970479))
(assert (= temp394_86 #x0000000000000000))
(assert (= var2625838 temp394_86))
(assert (= temp394_87 #x0000000000000000))
(assert (= var2625839 temp394_87))
(assert (= var2950270 var2625838))
(assert (= var2950271 var2625839))
(assert (= temp394_88 #x0000000000000001))
(assert (= var3477914 temp394_88))
(assert (= temp394_89 #x0000000000000001))
(assert (= var4002202 temp394_89))
(assert (= temp394_90 #x000000000000000b))
(assert (= var5510051 temp394_90))
(assert (= temp394_92 #x0000000000000001))
(assert (= temp394_91 temp394_92))
(model-add temp394_1 () (_ BitVec 64) #x0000000000080000)
(model-add var461925 () (_ BitVec 64) #x0000000000080000)
(model-add temp394_2 () (_ BitVec 64) #x0000000000080000)
(model-add var724069 () (_ BitVec 64) #x0000000000080000)
(model-add temp394_3 () (_ BitVec 64) #x0000000000000000)
(model-add temp394_4 () (_ BitVec 64) #x0000000000000000)
(model-add var69380 () (_ BitVec 64) #x0000000000000000)
(model-del k!0)
(model-add ARGNAME_rtol_NAMEEND
           ()
           (_ BitVec 64)
           (ite (or k!0 (= #x0000000000000000 #x8000000000000000))
                #x0000000000000000
                (bvsub #x0000000000000000 #x0000000000000001)))






